proyfinal/src/viki/013/experimentInOfficeAgust.take6.output/e2809e71-eaba-444e-a4ab-5e75c1fe4414.als.dat
{'cnf.clauses': '118081',
 'cnf.totvars': '69608',
 'conflict literals': '83',
 'conflicts': '39',
 'decisions': '5946',
 'memused.mb': '16.63',
 'outcome': 'UNSAT',
 'propagations': '34587',
 'restarts': '1',
 'solver.msecs': 31,
 'task.msecs': 83}
