proyfinal/src/viki/013/experimentInOfficeAgust.take6.output/e2809e71-eaba-444e-a4ab-5e75c1fe4414.als.out
Reading from standard input... Use '--help' for help.
============================[ Problem Statistics ]=============================
|                                                                             |
|  Number of variables:         69608                                         |
|  Number of clauses:          118081                                         |
|  Parse time:                   0.02 s                                       |
|                                                                             |
============================[ Search Statistics ]==============================
| Conflicts |          ORIGINAL         |          LEARNT          | Progress |
|           |    Vars  Clauses Literals |    Limit  Clauses Lit/Cl |          |
===============================================================================
===============================================================================
restarts              : 1
conflicts             : 39             (1224 /sec)
decisions             : 5946           (0.00 % random) (186547 /sec)
propagations          : 34587          (1085116 /sec)
conflict literals     : 83             (2.35 % deleted)
Memory used           : 16.63 MB
CPU time              : 0.031874 s

UNSATISFIABLE
